/* Objective function */
min: -0.1 f[0][0] -0.1 f[0][1] -0.1 f[0][2] -0.1 f[0][3] -0.1 f[0][4] -0.1 f[0][5] -0.1 f[0][6] -0.1 f[0][7]
 -0.1 f[0][8] -0.1 f[0][9] -0.1 f[1][0] -0.1 f[1][1] -0.1 f[1][2] -0.1 f[1][3] -0.1 f[1][4] -0.1 f[1][5]
 -0.1 f[1][6] -0.1 f[1][7] -0.1 f[1][8] -0.1 f[1][9] -0.1 f[2][0] -0.1 f[2][1] -0.1 f[2][2] -0.1 f[2][3]
 -0.1 f[2][4] -0.1 f[2][5] -0.1 f[2][6] -0.1 f[2][7] -0.1 f[2][8] -0.1 f[2][9] -0.1 f[3][0] -0.1 f[3][1]
 -0.1 f[3][2] -0.1 f[3][3] -0.1 f[3][4] -0.1 f[3][5] -0.1 f[3][6] -0.1 f[3][7] -0.1 f[3][8] +f[3][9]
 +l[1][10] +l[1][1] +l[1][2] +l[1][3] +l[1][4] +l[1][5] +l[1][6] +l[1][7] +l[1][8] +l[1][9] +n[0][10]
 +n[0][1] +n[0][2] +n[0][3] +n[0][4] +n[0][5] +n[0][6] +n[0][7] +n[0][8] +n[0][9] +n[1][10] +n[1][1]
 +n[1][2] +n[1][3] +n[1][4] +n[1][5] +n[1][6] +n[1][7] +n[1][8] +n[1][9] +n[2][10] +n[2][1] +n[2][2]
 +n[2][3] +n[2][4] +n[2][5] +n[2][6] +n[2][7] +n[2][8] +n[2][9] +n[3][10] +n[3][1] +n[3][2] +n[3][3]
 +n[3][4] +n[3][5] +n[3][6] +n[3][7] +n[3][8] -0.1 n[3][9] -0.1 r[1][0] -0.1 r[1][1] -0.1 r[1][2] -0.1 r[1][3]
 -0.1 r[1][4] -0.1 r[1][5] -0.1 r[1][6] -0.1 r[1][7] -0.1 r[1][8] +7.10995419886e+106 r[1][9];

/* Constraints */
0 f[0][0] <= 0;
0 f[0][0] <= 0;
0 f[0][0] <= 0;
0 f[0][0] <= 0;
0 f[0][0] <= 0;
0 f[0][0] <= 0;
0 f[0][0] <= 0;
0 f[0][0] <= 0;
0 f[0][0] <= 0;
0 f[0][0] <= 0;
0 f[0][0] <= 0;
0 f[0][0] <= 0;
0 f[0][0] <= 0;
0 f[0][0] <= 0;
0 f[0][0] <= 0;
0 f[0][0] <= 0;
0 f[0][0] <= 0;
0 f[0][0] <= 0;
0 f[0][0] <= 0;
0 f[0][0] <= 0;
0 f[0][0] <= 0;
0 f[0][0] <= 0;
0 f[0][0] <= 0;
0 f[0][0] <= 0;
0 f[0][0] <= 0;
0 f[0][0] <= 0;
0 f[0][0] <= 0;
0 f[0][0] <= 0;
0 f[0][0] <= 0;
0 f[0][0] <= 0;
0 f[0][0] <= 0;
0 f[0][0] <= 0;
0 f[0][0] <= 0;
0 f[0][0] <= 0;
0 f[0][0] <= 0;
0 f[0][0] <= 0;
0 f[0][0] <= 0;
0 f[0][0] <= 0;
0 f[0][0] <= 0;
0 f[0][0] <= 0;
0 f[0][0] <= 0;
0 f[0][0] <= 0;
0 f[0][0] <= 0;
0 f[0][0] <= 0;
0 f[0][0] <= 0;
0 f[0][0] <= 0;
0 f[0][0] <= 0;
0 f[0][0] <= 0;
0 f[0][0] <= 0;
0 f[0][0] <= 0;
0 f[0][0] <= 0;
0 f[0][0] <= 0;
0 f[0][0] <= 0;
0 f[0][0] <= 0;
0 f[0][0] <= 0;
0 f[0][0] <= 0;
0 f[0][0] <= 0;
0 f[0][0] <= 0;
0 f[0][0] <= 0;
0 f[0][0] <= 0;
0 f[0][0] <= 0;
0 f[0][0] <= 0;
0 f[0][0] <= 0;
0 f[0][0] <= 0;
0 f[0][0] <= 0;
0 f[0][0] <= 0;
0 f[0][0] <= 0;
0 f[0][0] <= 0;
0 f[0][0] <= 0;
0 f[0][0] <= 0;
0 f[0][0] <= 0;
0 f[0][0] <= 0;
0 f[0][0] <= 0;
0 f[0][0] <= 0;
0 f[0][0] <= 0;
0 f[0][0] <= 0;
0 f[0][0] <= 0;
0 f[0][0] <= 0;
0 f[0][0] <= 0;
0 f[0][0] <= 0;
0 f[0][0] <= 0;
0 f[0][0] <= 0;
0 f[0][0] <= 0;
0 f[0][0] <= 0;
0 f[0][0] <= 0;
0 f[0][0] <= 0;
0 f[0][0] <= 0;
0 f[0][0] <= 0;
0 f[0][0] <= 0;
0 f[0][0] <= 0;
0 f[0][0] <= 0;
0 f[0][0] <= 0;
0 f[0][0] <= 0;
0 f[0][0] <= 0;
0 f[0][0] <= 0;
0 f[0][0] <= 0;
0 f[0][0] <= 0;
0 f[0][0] <= 0;
0 f[0][0] <= 0;
0 f[0][0] <= 0;
0 f[0][0] <= 0;
0 f[0][0] <= 0;
0 f[0][0] <= 0;
0 f[0][0] <= 0;
0 f[0][0] <= 0;
0 f[0][0] <= 0;
0 f[0][0] <= 0;
0 f[0][0] <= 0;
0 f[0][0] <= 0;
0 f[0][0] <= 0;
0 f[0][0] <= 0;
0 f[0][0] <= 0;
0 f[0][0] <= 0;
0 f[0][0] <= 0;
0 f[0][0] <= 0;
0 f[0][0] <= 0;
0 f[0][0] <= 0;
0 f[0][0] <= 0;
0 f[0][0] <= 0;
0 f[0][0] <= 0;
0 f[0][0] <= 0;
0 f[0][0] <= 0;
0 f[0][0] <= 0;
0 f[0][0] <= 0;
0 f[0][0] <= 0;
0 f[0][0] <= 0;
0 f[0][0] <= 0;
0 f[0][0] <= 0;
0 f[0][0] <= 0;
0 f[0][0] <= 0;
0 f[0][0] <= 0;
0 f[0][0] <= 0;
0 f[0][0] <= 0;
0 f[0][0] <= 0;
0 f[0][0] <= 0;
0 f[0][0] <= 0;
0 f[0][0] <= 0;
0 f[0][0] <= 0;
0 f[0][0] <= 0;
0 f[0][0] <= 0;
0 f[0][0] <= 0;
0 f[0][0] <= 0;
0 f[0][0] <= 0;
0 f[0][0] <= 0;
0 f[0][0] <= 0;
0 f[0][0] <= 0;
0 f[0][0] <= 0;
0 f[0][0] <= 0;
0 f[0][0] <= 0;
0 f[0][0] <= 0;
0 f[0][0] <= 0;
0 f[0][0] <= 0;
0 f[0][0] <= 0;
0 f[0][0] <= 0;
0 f[0][0] <= 0;
0 f[0][0] <= 0;
0 f[0][0] <= 0;
0 f[0][0] <= 0;
0 f[0][0] <= 0;
0 f[0][0] <= 0;
0 f[0][0] <= 0;
0 f[0][0] <= 0;
0 f[0][0] <= 0;
0 f[0][0] <= 0;
0 f[0][0] <= 0;
0 f[0][0] <= 0;
0 f[0][0] <= 0;
0 f[0][0] <= 0;
0 f[0][0] <= 0;
0 f[0][0] <= 0;
-f[0][8] +f[1][8] +n[0][9] -n[1][8] -r[1][8] +7.10995419886e+106 r[1][9] = 0;
-f[2][2] +f[3][2] -n[3][2] +n[3][3] +7.10995419886e+106 r[1][9] = 0;
+f[0][2] -0.33528 n[0][2] +7.10995419886e+106 r[1][9] <= 0;
+f[1][6] +0.08382 n[2][6] +7.10995419886e+106 r[1][9] <= 3143.25;
+f[0][7] -0.33528 n[0][7] +7.10995419886e+106 r[1][9] <= 0;
+f[3][2] -0.33528 n[3][2] +7.10995419886e+106 r[1][9] <= 0;
-f[1][0] +f[2][0] -n[2][10] +n[2][1] +7.10995419886e+106 r[1][9] = 0;
+f[2][8] +0.08382 n[3][8] +7.10995419886e+106 r[1][9] <= 3143.25;
-l[1][1] +r[1][1] +7.10995419886e+106 r[1][9] <= 0.5555;
+f[0][7] -n[0][7] +n[0][8] +7.10995419886e+106 r[1][9] = 0.139;
+f[0][2] +0.08382 n[1][2] +0.08382 r[1][2] +7.10995419886e+106 r[1][9] <= 3143.25;
-l[1][7] +l[1][8] +r[1][7] +7.10995419886e+106 r[1][9] = 0.5555;
+f[2][4] -0.33528 n[2][4] +7.10995419886e+106 r[1][9] <= 0;
+n[0][10] +7.10995419886e+106 r[1][9] = 0.139;
+f[2][0] +0.08382 n[3][10] +7.10995419886e+106 r[1][9] <= 3143.25;
-l[1][2] +l[1][3] +r[1][2] +7.10995419886e+106 r[1][9] = 0.5555;
+f[0][0] -n[0][10] +n[0][1] +7.10995419886e+106 r[1][9] = 0.139;
-f[0][7] +f[1][7] -n[1][7] +n[1][8] -r[1][7] +7.10995419886e+106 r[1][9] = 0;
-f[2][1] +f[3][1] -n[3][1] +n[3][2] +7.10995419886e+106 r[1][9] = 0;
-l[1][8] +r[1][8] +7.10995419886e+106 r[1][9] <= 0.5555;
+f[0][8] -0.33528 n[0][8] +7.10995419886e+106 r[1][9] <= 0;
+f[0][1] -0.33528 n[0][1] +7.10995419886e+106 r[1][9] <= 0;
+f[2][7] +0.08382 n[3][7] +7.10995419886e+106 r[1][9] <= 3143.25;
-l[1][10] +r[1][0] +7.10995419886e+106 r[1][9] <= 0.5555;
+f[3][1] -0.33528 n[3][1] +7.10995419886e+106 r[1][9] <= 0;
+f[1][5] +0.08382 n[2][5] +7.10995419886e+106 r[1][9] <= 3143.25;
-f[0][9] +f[1][9] +n[2][10] +7.10995419886e+106 r[1][9] = 0;
+f[3][9] -l[1][8] +r[1][8] +7.10995419886e+106 r[1][9] = 0.5555;
+f[0][8] +l[1][9] -n[0][8] +7.10995419886e+106 r[1][9] = 0.139;
+f[0][1] +0.08382 n[1][1] +0.08382 r[1][1] +7.10995419886e+106 r[1][9] <= 3143.25;
+f[2][3] -0.33528 n[2][3] +7.10995419886e+106 r[1][9] <= 0;
-l[1][1] +l[1][2] +r[1][1] +7.10995419886e+106 r[1][9] = 0.5555;
+f[1][9] +7.10995419886e+106 r[1][9] <= 3143.25;
+f[2][6] -0.33528 n[2][6] +7.10995419886e+106 r[1][9] <= 0;
+f[0][7] +0.08382 n[1][7] +0.08382 r[1][7] +7.10995419886e+106 r[1][9] <= 3143.25;
+f[2][2] +0.08382 n[3][2] +7.10995419886e+106 r[1][9] <= 3143.25;
-f[0][6] +f[1][6] -n[1][6] +n[1][7] -r[1][6] +7.10995419886e+106 r[1][9] = 0;
+f[3][0] -0.33528 n[3][10] +7.10995419886e+106 r[1][9] <= 0;
+f[0][5] -n[0][5] +n[0][6] +7.10995419886e+106 r[1][9] = 0.139;
-l[1][3] +r[1][3] +7.10995419886e+106 r[1][9] <= 0.5555;
+f[1][4] +0.08382 n[2][4] +7.10995419886e+106 r[1][9] <= 3143.25;
-f[2][4] +f[3][4] -n[3][4] +n[3][5] +7.10995419886e+106 r[1][9] = 0;
+f[0][0] -0.33528 n[0][10] +7.10995419886e+106 r[1][9] <= 0;
+f[3][8] -0.33528 n[3][8] +7.10995419886e+106 r[1][9] <= 0;
-l[1][10] +l[1][1] +r[1][0] +7.10995419886e+106 r[1][9] = 0.5555;
+f[0][0] +0.08382 n[1][10] +0.08382 r[1][0] +7.10995419886e+106 r[1][9] <= 3143.25;
+f[0][8] +0.08382 n[1][8] +0.08382 r[1][8] +7.10995419886e+106 r[1][9] <= 3143.25;
+f[2][1] +0.08382 n[3][1] +7.10995419886e+106 r[1][9] <= 3143.25;
-f[0][5] +f[1][5] -n[1][5] +n[1][6] -r[1][5] +7.10995419886e+106 r[1][9] = 0;
+f[0][6] -n[0][6] +n[0][7] +7.10995419886e+106 r[1][9] = 0.139;
-l[1][2] +r[1][2] +7.10995419886e+106 r[1][9] <= 0.5555;
R222: +7.10995419886e+106 r[1][9] <= 0;
+f[2][9] +7.10995419886e+106 r[1][9] <= 0;
-f[2][3] +f[3][3] -n[3][3] +n[3][4] +7.10995419886e+106 r[1][9] = 0;
+f[1][3] +0.08382 n[2][3] +7.10995419886e+106 r[1][9] <= 3143.25;
+f[3][7] -0.33528 n[3][7] +7.10995419886e+106 r[1][9] <= 0;
+l[1][10] +n[3][9] +7.10995419886e+106 r[1][9] = 0.5555;
+0.08382 n[3][9] +7.10995419886e+106 r[1][9] <= 3143.25;
+f[2][5] -0.33528 n[2][5] +7.10995419886e+106 r[1][9] <= 0;
+f[0][3] -0.33528 n[0][3] +7.10995419886e+106 r[1][9] <= 0;
+f[0][5] +0.08382 n[1][5] +0.08382 r[1][5] +7.10995419886e+106 r[1][9] <= 3143.25;
-f[1][4] +f[2][4] -n[2][4] +n[2][5] +7.10995419886e+106 r[1][9] = 0;
-f[1][5] +f[2][5] -n[2][5] +n[2][6] +7.10995419886e+106 r[1][9] = 0;
-f[0][4] +f[1][4] -n[1][4] +n[1][5] -r[1][4] +7.10995419886e+106 r[1][9] = 0;
+f[2][0] -0.33528 n[2][10] +7.10995419886e+106 r[1][9] <= 0;
+f[0][3] -n[0][3] +n[0][4] +7.10995419886e+106 r[1][9] = 0.139;
-l[1][6] +l[1][7] +r[1][6] +7.10995419886e+106 r[1][9] = 0.5555;
+f[2][8] -0.33528 n[2][8] +7.10995419886e+106 r[1][9] <= 0;
-l[1][5] +r[1][5] +7.10995419886e+106 r[1][9] <= 0.5555;
-f[2][6] +f[3][6] -n[3][6] +n[3][7] +7.10995419886e+106 r[1][9] = 0;
+f[1][2] +0.08382 n[2][2] +7.10995419886e+106 r[1][9] <= 3143.25;
+f[2][4] +0.08382 n[3][4] +7.10995419886e+106 r[1][9] <= 3143.25;
+f[3][6] -0.33528 n[3][6] +7.10995419886e+106 r[1][9] <= 0;
+f[0][6] +0.08382 n[1][6] +0.08382 r[1][6] +7.10995419886e+106 r[1][9] <= 3143.25;
-f[1][3] +f[2][3] -n[2][3] +n[2][4] +7.10995419886e+106 r[1][9] = 0;
+f[1][9] +7.10995419886e+106 r[1][9] <= 0;
-f[0][3] +f[1][3] -n[1][3] +n[1][4] -r[1][3] +7.10995419886e+106 r[1][9] = 0;
-f[1][6] +f[2][6] -n[2][6] +n[2][7] +7.10995419886e+106 r[1][9] = 0;
-l[1][5] +l[1][6] +r[1][5] +7.10995419886e+106 r[1][9] = 0.5555;
+f[0][4] -n[0][4] +n[0][5] +7.10995419886e+106 r[1][9] = 0.139;
+f[2][7] -0.33528 n[2][7] +7.10995419886e+106 r[1][9] <= 0;
-l[1][4] +r[1][4] +7.10995419886e+106 r[1][9] <= 0.5555;
+f[3][5] -0.33528 n[3][5] +7.10995419886e+106 r[1][9] <= 0;
+f[1][1] +0.08382 n[2][1] +7.10995419886e+106 r[1][9] <= 3143.25;
+f[2][3] +0.08382 n[3][3] +7.10995419886e+106 r[1][9] <= 3143.25;
-f[2][5] +f[3][5] -n[3][5] +n[3][6] +7.10995419886e+106 r[1][9] = 0;
+f[0][4] -0.33528 n[0][4] +7.10995419886e+106 r[1][9] <= 0;
-f[1][7] +f[2][7] -n[2][7] +n[2][8] +7.10995419886e+106 r[1][9] = 0;
-f[0][2] +f[1][2] -n[1][2] +n[1][3] -r[1][2] +7.10995419886e+106 r[1][9] = 0;
-f[1][2] +f[2][2] -n[2][2] +n[2][3] +7.10995419886e+106 r[1][9] = 0;
+f[2][2] -0.33528 n[2][2] +7.10995419886e+106 r[1][9] <= 0;
+f[0][3] +0.08382 n[1][3] +0.08382 r[1][3] +7.10995419886e+106 r[1][9] <= 3143.25;
+f[1][7] +0.08382 n[2][7] +7.10995419886e+106 r[1][9] <= 3143.25;
+f[0][1] -n[0][1] +n[0][2] +7.10995419886e+106 r[1][9] = 0.139;
-f[2][0] +f[3][0] -n[3][10] +n[3][1] +7.10995419886e+106 r[1][9] = 0;
-l[1][4] +l[1][5] +r[1][4] +7.10995419886e+106 r[1][9] = 0.5555;
-l[1][7] +r[1][7] +7.10995419886e+106 r[1][9] <= 0.5555;
+f[2][6] +0.08382 n[3][6] +7.10995419886e+106 r[1][9] <= 3143.25;
+f[0][5] -0.33528 n[0][5] +7.10995419886e+106 r[1][9] <= 0;
-f[2][8] +f[3][8] +n[2][9] -n[3][8] +7.10995419886e+106 r[1][9] = 0;
+f[3][4] -0.33528 n[3][4] +7.10995419886e+106 r[1][9] <= 0;
+f[1][0] +0.08382 n[2][10] +7.10995419886e+106 r[1][9] <= 3143.25;
-f[0][0] +f[1][0] -n[1][10] +n[1][1] -r[1][0] +7.10995419886e+106 r[1][9] = 0;
-f[1][8] +f[2][8] +n[1][9] -n[2][8] +7.10995419886e+106 r[1][9] = 0;
-f[0][1] +f[1][1] -n[1][1] +n[1][2] -r[1][1] +7.10995419886e+106 r[1][9] = 0;
+f[1][8] +0.08382 n[2][8] +7.10995419886e+106 r[1][9] <= 3143.25;
+f[0][9] +7.10995419886e+106 r[1][9] <= 3143.25;
+f[2][1] -0.33528 n[2][1] +7.10995419886e+106 r[1][9] <= 0;
+f[0][4] +0.08382 n[1][4] +0.08382 r[1][4] +7.10995419886e+106 r[1][9] <= 3143.25;
+n[3][9] +7.10995419886e+106 r[1][9] <= 0.5555;
+f[0][2] -n[0][2] +n[0][3] +7.10995419886e+106 r[1][9] = 0.139;
-l[1][3] +l[1][4] +r[1][3] +7.10995419886e+106 r[1][9] = 0.5555;
-f[1][9] +f[2][9] +n[3][10] +7.10995419886e+106 r[1][9] = 0;
-l[1][6] +r[1][6] +7.10995419886e+106 r[1][9] <= 0.5555;
-f[2][7] +f[3][7] -n[3][7] +n[3][8] +7.10995419886e+106 r[1][9] = 0;
-f[1][1] +f[2][1] -n[2][1] +n[2][2] +7.10995419886e+106 r[1][9] = 0;
+f[0][6] -0.33528 n[0][6] +7.10995419886e+106 r[1][9] <= 0;
+f[2][5] +0.08382 n[3][5] +7.10995419886e+106 r[1][9] <= 3143.25;
+f[0][9] +n[1][10] -n[3][9] +7.10995419886e+106 r[1][9] = 0;
+f[3][3] -0.33528 n[3][3] +7.10995419886e+106 r[1][9] <= 0;
+r[1][6] +7.10995419886e+106 r[1][9] >= 0;
+f[2][4] +7.10995419886e+106 r[1][9] <= 0.416665;
+r[1][1] +7.10995419886e+106 r[1][9] >= 0;
+f[1][7] +7.10995419886e+106 r[1][9] <= 2.5;
+f[3][2] +7.10995419886e+106 r[1][9] <= 2.5;
+f[0][7] +7.10995419886e+106 r[1][9] <= 2.5;
+f[1][8] +7.10995419886e+106 r[1][9] <= 2.5;
R298: +7.10995419886e+106 r[1][9] <= 2.5;
+f[2][0] +7.10995419886e+106 r[1][9] <= 0.416665;
+f[3][6] +7.10995419886e+106 r[1][9] <= 2.5;
+f[1][2] +7.10995419886e+106 r[1][9] <= 2.5;
+r[1][7] +7.10995419886e+106 r[1][9] >= 0;
+r[1][2] +7.10995419886e+106 r[1][9] >= 0;
+f[2][3] +7.10995419886e+106 r[1][9] <= 0.416665;
+f[1][6] +7.10995419886e+106 r[1][9] <= 2.5;
+f[0][6] +7.10995419886e+106 r[1][9] <= 2.5;
+f[3][1] +7.10995419886e+106 r[1][9] <= 2.5;
+f[2][8] +7.10995419886e+106 r[1][9] <= 0.416665;
+f[1][5] +7.10995419886e+106 r[1][9] <= 2.5;
+f[1][9] +7.10995419886e+106 r[1][9] <= 0.416665;
+f[1][1] +7.10995419886e+106 r[1][9] <= 2.5;
+f[0][0] +7.10995419886e+106 r[1][9] <= 2.5;
+f[3][5] +7.10995419886e+106 r[1][9] <= 2.5;
+r[1][8] +7.10995419886e+106 r[1][9] >= 0;
+r[1][3] +7.10995419886e+106 r[1][9] >= 0;
+f[2][6] +7.10995419886e+106 r[1][9] <= 0.416665;
+f[0][4] +7.10995419886e+106 r[1][9] <= 2.5;
+n[3][9] +7.10995419886e+106 r[1][9] >= 0;
+f[1][4] +7.10995419886e+106 r[1][9] <= 2.5;
+f[3][0] +7.10995419886e+106 r[1][9] <= 2.5;
+f[0][5] +7.10995419886e+106 r[1][9] <= 2.5;
+f[0][1] +7.10995419886e+106 r[1][9] <= 2.5;
+f[3][4] +7.10995419886e+106 r[1][9] <= 2.5;
+f[2][7] +7.10995419886e+106 r[1][9] <= 0.416665;
+f[1][0] +7.10995419886e+106 r[1][9] <= 2.5;
+f[2][2] +7.10995419886e+106 r[1][9] <= 0.416665;
+r[1][4] +7.10995419886e+106 r[1][9] >= 0;
+f[3][7] +7.10995419886e+106 r[1][9] <= 2.5;
+f[2][5] +7.10995419886e+106 r[1][9] <= 0.416665;
+r[1][0] +7.10995419886e+106 r[1][9] >= 0;
+f[0][3] +7.10995419886e+106 r[1][9] <= 2.5;
+f[1][3] +7.10995419886e+106 r[1][9] <= 2.5;
+f[0][2] +7.10995419886e+106 r[1][9] <= 2.5;
+f[2][9] +7.10995419886e+106 r[1][9] <= 2.5;
+r[1][5] +7.10995419886e+106 r[1][9] >= 0;
+f[0][9] +7.10995419886e+106 r[1][9] <= 2.5;
+f[2][1] +7.10995419886e+106 r[1][9] <= 0.416665;
+f[3][3] +7.10995419886e+106 r[1][9] <= 2.5;
+f[3][8] +7.10995419886e+106 r[1][9] <= 2.5;
+f[0][8] +7.10995419886e+106 r[1][9] <= 2.5;
